NAME : n150w60.001.1024.tour
COMMENT : Length = 1024
COMMENT : Found by LKH [Keld Helsgaun] Tue May  2 05:48:16 2017
TYPE : TOUR
DIMENSION : 151
TOUR_SECTION
1
57
123
130
37
110
115
83
11
129
140
44
81
112
82
7
29
56
125
32
116
70
40
80
69
68
20
146
43
22
5
104
84
16
122
86
17
50
91
34
108
143
139
9
147
149
18
131
47
46
105
2
21
118
65
58
99
49
30
51
78
111
102
73
62
76
13
90
137
133
15
92
119
124
95
89
26
12
3
60
97
14
25
72
107
98
134
8
27
136
106
101
45
100
103
31
19
148
128
120
39
67
88
74
35
117
55
53
113
54
33
71
79
77
94
138
66
142
59
41
52
87
96
6
75
48
93
126
23
150
4
121
135
38
85
141
145
127
24
64
42
28
109
63
114
36
61
132
10
151
144
-1
EOF
